<number of tasks>
50

<cycle time>
1000

<order strength>
0.596


<task times>
1 452
2 448
3 309
4 534
5 478
6 280
7 747
8 437
9 452
10 595
11 494
12 492
13 352
14 447
15 549
16 584
17 732
18 278
19 425
20 665
21 536
22 578
23 454
24 313
25 458
26 376
27 526
28 542
29 676
30 492
31 534
32 510
33 557
34 461
35 557
36 254
37 511
38 579
39 446
40 611
41 422
42 503
43 423
44 466
45 534
46 515
47 269
48 600
49 578
50 574

<precedence relations>
1,7
1,8
1,12
2,7
3,5
3,6
4,5
4,6
4,9
5,10
5,11
5,12
5,13
6,10
6,11
7,10
7,13
7,14
7,15
8,11
8,32
9,10
10,16
11,24
11,27
11,33
12,18
13,17
13,19
14,16
14,17
14,19
14,22
15,17
16,21
16,27
16,29
17,30
18,22
18,28
18,34
19,20
20,25
20,27
20,28
20,34
21,23
21,24
21,26
21,28
22,24
22,25
23,31
23,32
24,48
25,29
25,30
26,30
26,45
27,43
28,39
28,44
29,33
29,38
30,35
30,36
30,38
30,42
31,37
31,38
32,34
32,35
32,40
33,40
33,41
34,39
34,41
37,40
37,48
41,42
41,43
41,44
42,46
43,45
43,46
43,49
44,47
44,48
44,49
44,50

<end>
